
Gurobi 12.0.3 (linux64) logging started Fri Mar 27 07:32:54 2026

Set parameter LogFile to value "/home/solar-wind/WT_Solar_results_bigM100000_thread4/case24_ieee_rts_theta0.1_epsilon0.05_gurobi_seed10000_num_gen38_N_WDR200_load_scaling_factor1_EIFICA_T24_num_Solar5_num_WT10.txt"
Gurobi Optimizer version 12.0.3 build v12.0.3rc0 (linux64 - "Ubuntu 22.04.5 LTS")

CPU model: Intel(R) Xeon(R) Platinum 8378A CPU @ 3.00GHz, instruction set [SSE2|AVX|AVX2|AVX512]
Thread count: 32 physical cores, 64 logical processors, using up to 4 threads

Non-default parameters:
TimeLimit  14400
MIPGap  0.001
Seed  10000
Threads  4

Academic license 2721591 - for non-commercial use only - registered to fa___@mails.neu.edu.cn
Optimize a model with 552948 rows, 2025 columns and 50689288 nonzeros
Model fingerprint: 0xefa07517
Model has 912 quadratic objective terms
Coefficient statistics:
  Matrix range     [2e-06, 6e+01]
  Objective range  [2e+01, 6e+01]
  QObjective range [4e-03, 2e-02]
  Bounds range     [0e+00, 0e+00]
  RHS range        [3e-02, 1e+03]
Presolve removed 449205 rows and 0 columns
Presolve time: 4.91s
Presolved: 103743 rows, 2899 columns, 2833232 nonzeros
Presolved model has 912 quadratic objective terms
Elapsed ordering time = 7s
Ordering time: 13.20s
Elapsed ordering time = 13s
Elapsed ordering time = 15s
Elapsed ordering time = 18s
Elapsed ordering time = 20s
Elapsed ordering time = 22s
Elapsed ordering time = 25s
Elapsed ordering time = 29s
Elapsed ordering time = 30s
Ordering time: 32.20s

Barrier statistics:
 Dense cols : 1073
 AA' NZ     : 7.663e+07
 Factor NZ  : 3.572e+08 (roughly 3.0 GB of memory)
 Factor Ops : 3.666e+12 (roughly 20 seconds per iteration)
 Threads    : 4

                  Objective                Residual
Iter       Primal          Dual         Primal    Dual     Compl     Time
   0   5.84699604e+08 -3.09043492e+08  3.70e+04 9.99e+02  9.93e+05    81s
   1   4.86958207e+08 -2.42370336e+08  3.28e+04 8.84e+02  8.80e+05    81s
   2   4.68385509e+08 -2.44527884e+08  3.19e+04 8.60e+02  8.76e+05    81s
   3   4.20454121e+08 -2.67352546e+08  2.97e+04 7.96e+02  8.34e+05    81s
   4   3.87692461e+08 -2.74314975e+08  2.81e+04 7.51e+02  8.04e+05    82s
   5   3.31923381e+08 -2.66463136e+08  2.52e+04 6.71e+02  7.20e+05    82s
   6   2.78323259e+08 -3.09988878e+08  2.24e+04 5.88e+02  6.85e+05    82s
   7   2.34885578e+08 -3.43586421e+08  1.98e+04 5.16e+02  6.51e+05    82s
   8   1.91959791e+08 -3.53390586e+08  1.71e+04 4.39e+02  5.57e+05    82s
   9   1.67104371e+08 -3.68336855e+08  1.53e+04 3.93e+02  5.15e+05    82s
  10   1.38161642e+08 -3.80197711e+08  1.33e+04 3.36e+02  4.42e+05    82s
  11   1.11368951e+08 -3.93007618e+08  1.12e+04 2.80e+02  3.71e+05    82s
  12   9.35828095e+07 -4.07881607e+08  9.73e+03 2.41e+02  3.21e+05    82s
  13   7.50466870e+07 -4.25034923e+08  8.14e+03 1.99e+02  2.67e+05    82s
  14   5.95146292e+07 -4.57256284e+08  6.69e+03 1.62e+02  2.28e+05    82s
  15   4.21450490e+07 -4.77253005e+08  4.93e+03 1.18e+02  1.69e+05    82s
  16   3.29052501e+07 -4.87189775e+08  3.94e+03 9.40e+01  1.35e+05    83s
  17   2.31172491e+07 -5.01574172e+08  2.85e+03 6.70e+01  1.07e+05    83s
  18   1.68633818e+07 -4.99492933e+08  2.10e+03 4.93e+01  7.98e+04    83s
  19   8.19092469e+06 -4.82082723e+08  1.25e+03 2.35e+01  4.38e+04    83s
  20   3.44329070e+06 -4.13398986e+08  5.92e+02 9.11e+00  2.00e+04    83s
  21   2.64257823e+06 -3.62913556e+08  4.38e+02 6.65e+00  1.49e+04    83s
  22   1.82649541e+06 -2.94634734e+08  2.76e+02 4.12e+00  9.50e+03    83s
  23   1.38472585e+06 -2.42769105e+08  1.80e+02 2.65e+00  6.32e+03    83s
  24   1.11344665e+06 -2.07328837e+08  1.14e+02 1.72e+00  4.40e+03    83s
  25   9.33820330e+05 -1.78660471e+08  6.30e+01 9.53e-01  2.97e+03    83s
  26   8.34967643e+05 -1.43430366e+08  3.30e+01 5.00e-01  1.95e+03    83s
  27   8.01692074e+05 -1.27426725e+08  2.30e+01 3.50e-01  1.59e+03    83s
  28   7.85770096e+05 -1.11522670e+08  1.77e+01 2.72e-01  1.33e+03    84s
  29   7.78598188e+05 -1.03523736e+08  1.53e+01 2.35e-01  1.21e+03    84s
  30   7.62181135e+05 -8.35089915e+07  9.73e+00 1.48e-01  9.19e+02    84s
  31   7.53742161e+05 -5.12275321e+07  6.66e+00 8.29e-02  5.39e+02    84s
  32   7.50417752e+05 -4.79833212e+07  4.56e+00 6.52e-02  5.03e+02    85s
  33   7.45888782e+05 -3.88191851e+07  2.98e+00 4.26e-02  4.01e+02   114s
  34   7.37765450e+05 -7.89041403e+06  2.30e-01 6.90e-01  8.09e+01   145s
  35   7.27598540e+05  1.87044787e+05  9.25e-03 1.05e-01  5.03e+00   178s
  36   6.66842486e+05  3.21825135e+05  2.63e-03 2.99e-02  3.21e+00   217s
  37   6.46650114e+05  5.35012436e+05  8.16e-04 9.52e-03  1.04e+00   298s
  38   6.33704750e+05  5.92727040e+05  8.34e-05 1.19e-03  3.81e-01   453s
  39   6.30172487e+05  6.11429343e+05  3.28e-06 4.70e-05  1.74e-01   470s
  40   6.28271600e+05  6.21896623e+05  1.97e-11 7.95e-11  5.93e-02   486s
  41   6.27563191e+05  6.25582014e+05  5.64e-11 1.27e-11  1.84e-02   503s
  42   6.27325949e+05  6.26778886e+05  9.35e-11 1.21e-11  5.09e-03   521s
  43   6.27266227e+05  6.27083263e+05  2.45e-10 7.75e-11  1.70e-03   539s
  44   6.27243306e+05  6.27199957e+05  3.99e-10 1.49e-10  4.03e-04   554s
  45   6.27236359e+05  6.27235768e+05  8.21e-11 1.53e-11  5.50e-06   572s
  46   6.27236260e+05  6.27236253e+05  5.04e-09 5.25e-10  6.76e-08   592s
  47   6.27236259e+05  6.27236258e+05  3.48e-08 2.30e-10  6.36e-09   634s

Barrier solved model in 47 iterations and 634.17 seconds (371.53 work units)
Optimal objective 6.27236259e+05

